% From JaCoP's nonogramRepository/data010.nin
 rows = 20;
 row_rule_len = 5;
 row_rules = array2d(1..rows, 1..row_rule_len, 
[
 0,0,0,0,5,
 0,0,0,2,1,
 0,0,0,2,3,
 0,0,0,2,4,
 0,0,0,2,5,
 0,0,0,2,6,
 0,0,0,0,10,
 0,0,2,5,8,
 0,2,1,2,11,
 0,0,2,9,5,
 0,0,3,8,4,
 0,3,6,3,3,
 0,0,2,5,2,
 0,2,3,3,2,
 0,0,3,7,2,
 0,0,4,6,3,
 0,0,4,7,4,
 2,3,3,2,1,
 0,0,9,5,3,
 0,0,0,9,10
]);

 cols = 25;
 col_rule_len = 5;
 col_rules = array2d(1..cols, 1..col_rule_len, 
[
 0,0,0,0,3,
 0,0,0,0,5,
 0,0,1,2,1,
 0,0,1,4,2,
 0,1,1,4,2,
 0,0,2,3,2,
 0,0,4,2,2,
 0,0,2,5,5,
 0,2,6,1,4,
 2,3,3,2,2,
 0,1,3,3,7,
 0,1,3,3,5,
 1,3,4,4,1,
 1,3,4,3,2,
 1,4,4,4,2,
 0,5,3,5,2,
 0,2,2,3,4,
 0,0,2,2,3,
 0,2,2,1,1,
 0,0,3,1,1,
 0,0,0,3,2,
 0,0,0,4,4,
 0,0,0,4,4,
 0,0,0,0,8,
 0,0,0,0,8
]);

